words_train/words_580_SAT.qaiger
aag 70 16 0 1 54
32
16
8
22
20
12
26
30
6
4
18
10
28
2
14
24
140
34 27 25
36 34 29
38 36 31
40 39 33
42 38 32
44 43 41
46 5 3
48 47 6
50 48 8
52 50 10
54 51 11
56 55 53
58 52 12
60 53 13
62 61 59
64 62 33
66 65 57
68 67 45
70 28 7
72 71 49
74 49 9
76 75 51
78 76 31
80 35 5
82 28 6
84 83 81
86 25 2
88 87 26
90 89 47
92 90 84
94 93 37
96 94 79
98 96 73
100 57 44
102 77 30
104 103 39
106 104 101
108 106 99
110 109 69
112 58 14
114 59 15
116 115 113
118 117 40
120 119 110
122 62 41
124 122 116
126 125 111
128 127 121
130 113 16
132 112 17
134 133 131
136 135 129
138 134 128
140 139 137
i0 1 x[7]
i1 2 y[7]
i2 2 y[3]
i3 1 x[2]
i4 1 x[1]
i5 2 y[5]
i6 1 x[4]
i7 1 x[6]
i8 2 y[2]
i9 2 y[1]
i10 1 x[0]
i11 2 y[4]
i12 1 x[5]
i13 2 y[0]
i14 2 y[6]
i15 1 x[3]
o0 bv[0]
c
simplified
  <=
    >> 3
      1 x
    subtract
      add
        1
        1
      invert
        2 y
