words_train/words_580_SAT.qaiger.qdimacs
p cnf 70 163
a 9 10 11 12 13 14 15 16 0
e 1 2 3 4 5 6 7 8 17 18 19 20 21 22 23 24 25 26 27 28 29 30 31 32 33 34 35 36 37 38 39 40 41 42 43 44 45 46 47 48 49 50 51 52 53 54 55 56 57 58 59 60 61 62 63 64 65 66 67 68 69 70 0
13 12 17 0
-13 -17 0
-12 -17 0
-17 14 18 0
17 -18 0
-14 -18 0
-18 15 19 0
18 -19 0
-15 -19 0
19 16 20 0
-19 -20 0
-16 -20 0
-19 -16 21 0
19 -21 0
16 -21 0
21 20 22 0
-21 -22 0
-20 -22 0
2 1 23 0
-2 -23 0
-1 -23 0
23 -3 24 0
-23 -24 0
3 -24 0
-24 -4 25 0
24 -25 0
4 -25 0
-25 -5 26 0
25 -26 0
5 -26 0
25 5 27 0
-25 -27 0
-5 -27 0
27 26 28 0
-27 -28 0
-26 -28 0
-26 -6 29 0
26 -29 0
6 -29 0
26 6 30 0
-26 -30 0
-6 -30 0
30 29 31 0
-30 -31 0
-29 -31 0
-31 16 32 0
31 -32 0
-16 -32 0
32 28 33 0
-32 -33 0
-28 -33 0
33 22 34 0
-33 -34 0
-22 -34 0
-14 3 35 0
14 -35 0
-3 -35 0
35 24 36 0
-35 -36 0
-24 -36 0
24 4 37 0
-24 -37 0
-4 -37 0
37 25 38 0
-37 -38 0
-25 -38 0
-38 15 39 0
38 -39 0
-15 -39 0
17 2 40 0
-17 -40 0
-2 -40 0
-14 -3 41 0
14 -41 0
3 -41 0
41 40 42 0
-41 -42 0
-40 -42 0
12 -1 43 0
-12 -43 0
1 -43 0
43 -13 44 0
-43 -44 0
13 -44 0
44 23 45 0
-44 -45 0
-23 -45 0
-45 -42 46 0
45 -46 0
42 -46 0
46 18 47 0
-46 -47 0
-18 -47 0
-47 39 48 0
47 -48 0
-39 -48 0
-48 36 49 0
48 -49 0
-36 -49 0
28 -22 50 0
-28 -50 0
22 -50 0
38 -15 51 0
-38 -51 0
15 -51 0
51 19 52 0
-51 -52 0
-19 -52 0
-52 50 53 0
52 -53 0
-50 -53 0
-53 49 54 0
53 -54 0
-49 -54 0
54 34 55 0
-54 -55 0
-34 -55 0
-29 -7 56 0
29 -56 0
7 -56 0
29 7 57 0
-29 -57 0
-7 -57 0
57 56 58 0
-57 -58 0
-56 -58 0
58 -20 59 0
-58 -59 0
20 -59 0
59 -55 60 0
-59 -60 0
55 -60 0
-31 20 61 0
31 -61 0
-20 -61 0
-61 -58 62 0
61 -62 0
58 -62 0
62 55 63 0
-62 -63 0
-55 -63 0
63 60 64 0
-63 -64 0
-60 -64 0
56 -8 65 0
-56 -65 0
8 -65 0
-56 8 66 0
56 -66 0
-8 -66 0
66 65 67 0
-66 -67 0
-65 -67 0
67 64 68 0
-67 -68 0
-64 -68 0
-67 -64 69 0
67 -69 0
64 -69 0
69 68 70 0
-69 -70 0
-68 -70 0
70 0
